(set-logic HORN)
(set-info :source |
    Benchmark: C_VC
    Output by Princess (http://www.philipp.ruemmer.org/princess.shtml)
|)
(set-info :status sat)
;===============================================================================
; Encoding of Heap sorts and operations
;-------------------------------------------------------------------------------
(define-sort Addr() Int)
(declare-datatypes ((AddrRange 0))
                   (((AddrRange (AddrRangeStart Addr) (AddrRangeSize Int)))))

(declare-datatypes ((HeapObject 0))
                   (((O_Int (getInt Int)) (O_UInt (getUInt Int)) (O_Addr (getAddr Addr)) (defObj))))
(declare-datatypes ((BatchAllocResHeap 0) (AllocResHeap 0) (Heap 0))
                   (((BatchAllocResHeap   (newBatchHeap Heap) (newAddrRange AddrRange)))
                   ((AllocResHeap   (newHeap Heap) (newAddr Addr)))
                    ((HeapCtor (HeapSize Int)
                               (HeapContents (Array Addr HeapObject))))))
(define-fun nullAddr  () Addr 0)
(define-fun validHeap     ((h Heap) (p Addr)) Bool
  (and (>= (HeapSize h) p) (> p 0)))
(define-fun emptyHeap () Heap (
  HeapCtor 0 (( as const (Array Addr HeapObject)) defObj)))
(define-fun readHeap ((h Heap) (p Addr)) HeapObject
  (ite (validHeap h p)
       (select (HeapContents h) p)
       defObj))
(define-fun writeHeap ((h Heap) (p Addr) (o HeapObject)) Heap
  (ite (validHeap h p)
       (HeapCtor (HeapSize h) (store (HeapContents h) p o))
       h))
(define-fun allocHeap   ((h Heap) (o HeapObject)) AllocResHeap
  (AllocResHeap (HeapCtor (+ 1 (HeapSize h))
                    (store (HeapContents h) (+ 1 (HeapSize h)) o))
          (+ 1 (HeapSize h))))
(define-fun Heap-eq     ((h1 Heap) (h2 Heap)) Bool
  (forall ((p Addr))
          (and (= (validHeap h1 p) (validHeap h2 p))
               (= (readHeap h1 p) (readHeap h2 p)))))
(define-fun nthAddrRange((ar AddrRange) (n Int)) Addr
  (ite (and (>= n 0) (< n (AddrRangeSize ar)))
       (+ (AddrRangeStart ar) n)
       nullAddr))
(define-fun withinHeap ((ar AddrRange ) (p Addr)) Bool
  (and (>= p (AddrRangeStart ar)) (< p (+ (AddrRangeStart ar) (AddrRangeSize ar)))))

(declare-fun batchAllocHeap     (Heap Heap HeapObject Int Int) Bool)
(declare-fun batchAllocPostHeap (Heap Heap HeapObject Int) Bool)

(assert (forall ((h1 Heap) (h2 Heap) (o HeapObject) (n1 Int) (n2 Int))
                (=> (and (> n2 0) (batchAllocHeap h1 h2 o n1 n2))
                   (batchAllocHeap h1 (newHeap (allocHeap h2 o)) o n1 (- n2 1)))))
(assert (forall ((h1 Heap) (h2 Heap) (o HeapObject) (n1 Int) (n2 Int))
                (=> (and (<= n2 0) (batchAllocHeap h1 h2 o n1 n2))
                   (batchAllocPostHeap h1 h2 o n1))))

(declare-fun batchWriteHeap     (Heap Heap Addr Addr HeapObject Int Int) Bool)
(declare-fun batchWritePostHeap (Heap Heap Addr HeapObject Int) Bool)

(assert (forall ((h1 Heap) (h2 Heap) (a1 Addr) (a2 Addr) (o HeapObject) (n1 Int) (n2 Int))
                (=> (and (> n2 0) (batchWriteHeap h1 h2 a1 a2 o n1 n2))
                   (batchWriteHeap h1 (writeHeap h2 a2 o) a1 (+ a2 1) o n1 (- n2 1)))))
(assert (forall ((h1 Heap) (h2 Heap) (a1 Addr) (a2 Addr) (o HeapObject) (n1 Int) (n2 Int))
                (=> (and (<= n2 0) (batchWriteHeap h1 h2 a1 a2 o n1 n2))
                   (batchWritePostHeap h1 h2 a1 o n1))))

;===============================================================================
(declare-fun inv_main2 (Heap Int) Bool)
(declare-fun inv_main20 (Heap Int AddrRange AddrRange Int Int Int Int Int) Bool)
(declare-fun inv_main22 (Heap Int AddrRange AddrRange Int Int Int Int Int) Bool)
(declare-fun inv_main23 (Heap Int AddrRange AddrRange Int Int Int Int Int) Bool)
(declare-fun inv_main37 (Heap Int AddrRange AddrRange Int Int Int Int Int) Bool)
(declare-fun inv_main38 (Heap Int AddrRange AddrRange Int Int Int Int Int) Bool)
(declare-fun inv_main39 (Heap Int AddrRange AddrRange Int Int Int Int Int) Bool)
(declare-fun inv_main40 (Heap Int AddrRange AddrRange Int Int Int Int Int) Bool)
(declare-fun inv_main41 (Heap Int AddrRange AddrRange Int Int Int Int Int) Bool)
(declare-fun inv_main49 (Heap Int AddrRange AddrRange Int Int Int Int Int) Bool)
(declare-fun inv_main51 (Heap Int AddrRange AddrRange Int Int Int Int Int) Bool)
(declare-fun inv_main53 (Heap Int AddrRange AddrRange Int Int Int Int Int Int) Bool)
(assert (forall ((var0 Int) (var1 Heap)) (or (not (and (= var1 emptyHeap) (= var0 0))) (inv_main2 var1 var0))))
(assert (forall ((var0 Int) (var1 Int) (var2 Int) (var3 Int) (var4 AddrRange) (var5 AddrRange) (var6 Int) (var7 Heap) (var8 Int) (var9 Int) (var10 Int) (var11 Int) (var12 Int) (var13 Int) (var14 Int) (var15 Int) (var16 AddrRange) (var17 AddrRange) (var18 Int) (var19 Heap) (var20 Int) (var21 Int)) (or (not (and (and (and (and (and (and (and (and (and (and (and (and (and (inv_main23 var19 var18 var17 var16 var15 var14 var13 var12 var11) (or (and (<= 0 (+ (+ (* (- 1) var8) var18) (* (- 1) 1))) (= var9 1)) (and (not (<= 0 (+ (+ (* (- 1) var8) var18) (* (- 1) 1)))) (= var9 0)))) (= var10 var8)) (= var0 var12)) (= var1 var13)) (= var2 var14)) (= var3 var15)) (= var4 var16)) (= var5 var17)) (= var6 var18)) (= var7 var19)) (<= 0 var8)) (not (= var9 0))) (not (or (not (and (and (and (and (or (not (<= 0 (+ (* (- 1) var20) (* (- 1) 1)))) (<= 0 (+ (* (- 1) var10) (* (- 1) 1)))) (or (not (<= 0 (+ var20 (* (- 1) 1)))) (<= 0 (+ var10 (* (- 1) 1))))) (<= 0 (+ (+ (* 1 var20) 2) (* (- 1) 1)))) (<= 0 (+ (+ (* (- 1) var20) 2) (* (- 1) 1)))) (= var10 (+ (* 2 var21) var20)))) (= var20 0))))) (inv_main38 var7 var6 var5 var4 var3 var2 var1 var0 var10))))
(assert (forall ((var0 Int) (var1 Int) (var2 Int) (var3 Int) (var4 Int) (var5 AddrRange) (var6 AddrRange) (var7 Heap) (var8 Int) (var9 Int) (var10 Int) (var11 Int) (var12 Int) (var13 Int) (var14 Int) (var15 AddrRange) (var16 AddrRange) (var17 Int) (var18 Heap)) (or (not (and (and (and (and (and (and (and (and (and (and (and (and (and (inv_main22 var18 var17 var16 var15 var14 var13 var12 var11 var10) (= var0 (+ var8 1))) (= var1 var10)) (= var2 var11)) (= var3 var12)) (= var4 var13)) (= var8 var14)) (= var5 var15)) (= var6 var16)) (= var9 var17)) (= var7 (writeHeap var18 (nthAddrRange var15 var14) (O_Int 0)))) (is-O_Int (readHeap var18 (nthAddrRange var15 var14)))) (is-O_Int (readHeap var18 (nthAddrRange var15 var14)))) (<= 0 (+ (+ (* (- 1) (+ var8 1)) var9) (* (- 1) 1))))) (inv_main20 var7 var9 var6 var5 var0 var4 var3 var2 var1))))
(assert (forall ((var0 Int) (var1 Int) (var2 Int) (var3 Int) (var4 Int) (var5 Int) (var6 Heap) (var7 Int) (var8 Int) (var9 Int) (var10 Heap) (var11 AddrRange) (var12 AddrRange) (var13 AddrRange) (var14 Int) (var15 Int) (var16 Heap) (var17 Int) (var18 Int) (var19 Heap)) (or (not (and (and (batchAllocPostHeap emptyHeap var10 (O_Int var9) var8) (batchAllocPostHeap emptyHeap var16 (O_Int var15) var14)) (and (and (and (and (and (and (and (and (and (and (and (and (and (and (and (inv_main2 var19 var18) (= var2 0)) (= var3 (* (- 1) 1))) (= var4 0)) (or (and (<= 0 (+ var5 (* (- 1) 1))) (= var7 1)) (and (not (<= 0 (+ var5 (* (- 1) 1)))) (= var7 0)))) (= var8 var5)) (= var6 var19)) (not (= var7 0))) (= var12 (AddrRange (ite (<= 0 (+ var8 (- 1))) (+ (HeapSize emptyHeap) 1) (HeapSize emptyHeap)) var8))) (= var14 var8)) true) (= var11 (AddrRange (ite (<= 0 (+ var14 (- 1))) (+ (HeapSize emptyHeap) 1) (HeapSize emptyHeap)) var14))) (= var13 var12)) (= var17 var14)) true) (<= 0 (+ var17 (* (- 1) 1)))))) (inv_main20 var16 var17 var13 var11 var4 var3 var2 var1 var0))))
(assert (forall ((var0 Int) (var1 Int) (var2 Int) (var3 Int) (var4 Int) (var5 Int) (var6 Heap) (var7 Int) (var8 Int) (var9 Int) (var10 Heap) (var11 AddrRange) (var12 AddrRange) (var13 AddrRange) (var14 Int) (var15 Int) (var16 Heap) (var17 Int) (var18 Int) (var19 Heap)) (or (not (and (and (and (and (and (and (and (and (and (and (and (and (and (and (and (inv_main2 var19 var18) (= var2 0)) (= var3 (* (- 1) 1))) (= var4 0)) (or (and (<= 0 (+ var5 (* (- 1) 1))) (= var7 1)) (and (not (<= 0 (+ var5 (* (- 1) 1)))) (= var7 0)))) (= var8 var5)) (= var6 var19)) (not (= var7 0))) (= var12 (AddrRange (ite (<= 0 (+ var8 (- 1))) (+ (HeapSize emptyHeap) 1) (HeapSize emptyHeap)) var8))) (= var14 var8)) true) (= var11 (AddrRange (ite (<= 0 (+ var14 (- 1))) (+ (HeapSize emptyHeap) 1) (HeapSize emptyHeap)) var14))) (= var13 var12)) (= var17 var14)) true) (<= 0 (+ var17 (* (- 1) 1))))) (batchAllocHeap emptyHeap emptyHeap (O_Int var9) var8 var8))))
(assert (forall ((var0 Int) (var1 Int) (var2 Int) (var3 Int) (var4 Int) (var5 Int) (var6 Heap) (var7 Int) (var8 Int) (var9 Int) (var10 Heap) (var11 AddrRange) (var12 AddrRange) (var13 AddrRange) (var14 Int) (var15 Int) (var16 Heap) (var17 Int) (var18 Int) (var19 Heap)) (or (not (and (and (and (and (and (and (and (and (and (and (and (and (and (and (and (inv_main2 var19 var18) (= var2 0)) (= var3 (* (- 1) 1))) (= var4 0)) (or (and (<= 0 (+ var5 (* (- 1) 1))) (= var7 1)) (and (not (<= 0 (+ var5 (* (- 1) 1)))) (= var7 0)))) (= var8 var5)) (= var6 var19)) (not (= var7 0))) (= var12 (AddrRange (ite (<= 0 (+ var8 (- 1))) (+ (HeapSize emptyHeap) 1) (HeapSize emptyHeap)) var8))) (= var14 var8)) true) (= var11 (AddrRange (ite (<= 0 (+ var14 (- 1))) (+ (HeapSize emptyHeap) 1) (HeapSize emptyHeap)) var14))) (= var13 var12)) (= var17 var14)) true) (<= 0 (+ var17 (* (- 1) 1))))) (batchAllocHeap emptyHeap emptyHeap (O_Int var15) var14 var14))))
(assert (forall ((var0 Int) (var1 Int) (var2 Int) (var3 Int) (var4 AddrRange) (var5 AddrRange) (var6 Int) (var7 Heap) (var8 Int) (var9 Int) (var10 Int) (var11 Int) (var12 Int) (var13 Int) (var14 Int) (var15 Int) (var16 AddrRange) (var17 AddrRange) (var18 Int) (var19 Heap) (var20 Int) (var21 Int)) (or (not (and (and (and (and (and (and (and (and (and (and (and (and (and (and (and (and (and (and (inv_main23 var19 var18 var17 var16 var15 var14 var13 var12 var11) (or (and (<= 0 (+ (+ (* (- 1) var8) var18) (* (- 1) 1))) (= var9 1)) (and (not (<= 0 (+ (+ (* (- 1) var8) var18) (* (- 1) 1)))) (= var9 0)))) (= var10 var8)) (= var0 var12)) (= var1 var13)) (= var2 var14)) (= var3 var15)) (= var4 var16)) (= var5 var17)) (= var6 var18)) (= var7 var19)) (<= 0 var8)) (not (= var9 0))) (= var20 0)) (= var10 (+ (* 2 var21) var20))) (or (not (<= 0 (+ (* (- 1) var20) (* (- 1) 1)))) (<= 0 (+ (* (- 1) var10) (* (- 1) 1))))) (or (not (<= 0 (+ var20 (* (- 1) 1)))) (<= 0 (+ var10 (* (- 1) 1))))) (<= 0 (+ (+ (* 1 var20) 2) (* (- 1) 1)))) (<= 0 (+ (+ (* (- 1) var20) 2) (* (- 1) 1))))) (inv_main37 var7 var6 var5 var4 var3 var2 var1 var0 var10))))
(assert (forall ((var0 Int) (var1 Int) (var2 Int) (var3 Int) (var4 Int) (var5 Int) (var6 AddrRange) (var7 AddrRange) (var8 Int) (var9 Heap)) (or (not (and (and (inv_main51 var9 var8 var7 var6 var5 var4 var3 var2 var1) (= var0 (+ var3 (getInt (readHeap var9 (nthAddrRange var7 var5)))))) (is-O_Int (readHeap var9 (nthAddrRange var7 var5))))) (inv_main53 var9 var8 var7 var6 var5 var4 var3 var2 var1 var0))))
(assert (forall ((var0 Heap) (var1 Int) (var2 Int) (var3 Int) (var4 Int) (var5 Int) (var6 AddrRange) (var7 AddrRange) (var8 Int) (var9 Heap)) (or (not (and (and (and (inv_main38 var9 var8 var7 var6 var5 var4 var3 var2 var1) (= var0 (writeHeap var9 (nthAddrRange var7 var1) (O_Int (* var4 var5))))) (is-O_Int (readHeap var9 (nthAddrRange var7 var1)))) (is-O_Int (readHeap var9 (nthAddrRange var7 var1))))) (inv_main40 var0 var8 var7 var6 var5 var4 var3 var2 var1))))
(assert (forall ((var0 Heap) (var1 Int) (var2 Int) (var3 Int) (var4 Int) (var5 Int) (var6 AddrRange) (var7 AddrRange) (var8 Int) (var9 Heap)) (or (not (and (and (and (inv_main37 var9 var8 var7 var6 var5 var4 var3 var2 var1) (= var0 (writeHeap var9 (nthAddrRange var7 var1) (O_Int (* (* var4 var5) var4))))) (is-O_Int (readHeap var9 (nthAddrRange var7 var1)))) (is-O_Int (readHeap var9 (nthAddrRange var7 var1))))) (inv_main39 var0 var8 var7 var6 var5 var4 var3 var2 var1))))
(assert (forall ((var0 Int) (var1 Int) (var2 Int) (var3 Int) (var4 Int) (var5 Int) (var6 Int) (var7 AddrRange) (var8 AddrRange) (var9 Int) (var10 Heap)) (or (not (and (and (inv_main41 var10 var9 var8 var7 var6 var5 var4 var3 var2) (= var0 (+ var6 1))) (not (= var1 0)))) (inv_main23 var10 var9 var8 var7 var0 var5 var4 var1 var2))))
(assert (forall ((var0 Int) (var1 Int) (var2 Int) (var3 Int) (var4 Int) (var5 AddrRange) (var6 AddrRange) (var7 Heap) (var8 Int) (var9 Int) (var10 Int) (var11 Int) (var12 Int) (var13 Int) (var14 Int) (var15 AddrRange) (var16 AddrRange) (var17 Int) (var18 Heap)) (or (not (and (and (and (and (and (and (and (and (and (and (and (and (and (inv_main22 var18 var17 var16 var15 var14 var13 var12 var11 var10) (= var0 1)) (= var1 var10)) (= var2 var11)) (= var3 var12)) (= var4 var13)) (= var8 var14)) (= var5 var15)) (= var6 var16)) (= var9 var17)) (= var7 (writeHeap var18 (nthAddrRange var15 var14) (O_Int 0)))) (is-O_Int (readHeap var18 (nthAddrRange var15 var14)))) (is-O_Int (readHeap var18 (nthAddrRange var15 var14)))) (not (<= 0 (+ (+ (* (- 1) (+ var8 1)) var9) (* (- 1) 1)))))) (inv_main23 var7 var9 var6 var5 var0 var4 var3 var2 var1))))
(assert (forall ((var0 Int) (var1 Int) (var2 Int) (var3 Int) (var4 Int) (var5 Int) (var6 Heap) (var7 Int) (var8 Int) (var9 Int) (var10 Heap) (var11 AddrRange) (var12 AddrRange) (var13 AddrRange) (var14 Int) (var15 Int) (var16 Heap) (var17 Int) (var18 Int) (var19 Heap)) (or (not (and (and (batchAllocPostHeap emptyHeap var10 (O_Int var9) var8) (batchAllocPostHeap emptyHeap var16 (O_Int var15) var14)) (and (and (and (and (and (and (and (and (and (and (and (and (and (and (and (inv_main2 var19 var18) (= var2 0)) (= var3 (* (- 1) 1))) (= var4 1)) (or (and (<= 0 (+ var5 (* (- 1) 1))) (= var7 1)) (and (not (<= 0 (+ var5 (* (- 1) 1)))) (= var7 0)))) (= var8 var5)) (= var6 var19)) (not (= var7 0))) (= var12 (AddrRange (ite (<= 0 (+ var8 (- 1))) (+ (HeapSize emptyHeap) 1) (HeapSize emptyHeap)) var8))) (= var14 var8)) true) (= var11 (AddrRange (ite (<= 0 (+ var14 (- 1))) (+ (HeapSize emptyHeap) 1) (HeapSize emptyHeap)) var14))) (= var13 var12)) (= var17 var14)) true) (not (<= 0 (+ var17 (* (- 1) 1))))))) (inv_main23 var16 var17 var13 var11 var4 var3 var2 var1 var0))))
(assert (forall ((var0 Int) (var1 Int) (var2 Int) (var3 Int) (var4 Int) (var5 Int) (var6 Heap) (var7 Int) (var8 Int) (var9 Int) (var10 Heap) (var11 AddrRange) (var12 AddrRange) (var13 AddrRange) (var14 Int) (var15 Int) (var16 Heap) (var17 Int) (var18 Int) (var19 Heap)) (or (not (and (and (and (and (and (and (and (and (and (and (and (and (and (and (and (inv_main2 var19 var18) (= var2 0)) (= var3 (* (- 1) 1))) (= var4 1)) (or (and (<= 0 (+ var5 (* (- 1) 1))) (= var7 1)) (and (not (<= 0 (+ var5 (* (- 1) 1)))) (= var7 0)))) (= var8 var5)) (= var6 var19)) (not (= var7 0))) (= var12 (AddrRange (ite (<= 0 (+ var8 (- 1))) (+ (HeapSize emptyHeap) 1) (HeapSize emptyHeap)) var8))) (= var14 var8)) true) (= var11 (AddrRange (ite (<= 0 (+ var14 (- 1))) (+ (HeapSize emptyHeap) 1) (HeapSize emptyHeap)) var14))) (= var13 var12)) (= var17 var14)) true) (not (<= 0 (+ var17 (* (- 1) 1)))))) (batchAllocHeap emptyHeap emptyHeap (O_Int var9) var8 var8))))
(assert (forall ((var0 Int) (var1 Int) (var2 Int) (var3 Int) (var4 Int) (var5 Int) (var6 Heap) (var7 Int) (var8 Int) (var9 Int) (var10 Heap) (var11 AddrRange) (var12 AddrRange) (var13 AddrRange) (var14 Int) (var15 Int) (var16 Heap) (var17 Int) (var18 Int) (var19 Heap)) (or (not (and (and (and (and (and (and (and (and (and (and (and (and (and (and (and (inv_main2 var19 var18) (= var2 0)) (= var3 (* (- 1) 1))) (= var4 1)) (or (and (<= 0 (+ var5 (* (- 1) 1))) (= var7 1)) (and (not (<= 0 (+ var5 (* (- 1) 1)))) (= var7 0)))) (= var8 var5)) (= var6 var19)) (not (= var7 0))) (= var12 (AddrRange (ite (<= 0 (+ var8 (- 1))) (+ (HeapSize emptyHeap) 1) (HeapSize emptyHeap)) var8))) (= var14 var8)) true) (= var11 (AddrRange (ite (<= 0 (+ var14 (- 1))) (+ (HeapSize emptyHeap) 1) (HeapSize emptyHeap)) var14))) (= var13 var12)) (= var17 var14)) true) (not (<= 0 (+ var17 (* (- 1) 1)))))) (batchAllocHeap emptyHeap emptyHeap (O_Int var15) var14 var14))))
(assert (forall ((var0 Heap) (var1 Int) (var2 Int) (var3 Int) (var4 Int) (var5 Int) (var6 AddrRange) (var7 AddrRange) (var8 Int) (var9 Heap)) (or (not (and (and (and (inv_main20 var9 var8 var7 var6 var5 var4 var3 var2 var1) (= var0 (writeHeap var9 (nthAddrRange var7 var5) (O_Int 0)))) (is-O_Int (readHeap var9 (nthAddrRange var7 var5)))) (is-O_Int (readHeap var9 (nthAddrRange var7 var5))))) (inv_main22 var0 var8 var7 var6 var5 var4 var3 var2 var1))))
(assert (forall ((var0 Int) (var1 Int) (var2 Int) (var3 Int) (var4 Int) (var5 AddrRange) (var6 AddrRange) (var7 Int) (var8 Heap) (var9 Int) (var10 Int) (var11 Int) (var12 Int) (var13 Int) (var14 Int) (var15 AddrRange) (var16 AddrRange) (var17 Int) (var18 Heap)) (or (not (and (and (and (and (and (and (and (and (and (and (and (and (and (inv_main39 var18 var17 var16 var15 var14 var13 var12 var11 var10) (= var0 0)) (= var1 var10)) (= var2 var11)) (= var3 var12)) (= var4 var13)) (= var9 var14)) (= var5 var15)) (= var6 var16)) (= var7 var17)) (= var8 (writeHeap var18 (nthAddrRange var15 var10) (O_Int (* var13 var14))))) (is-O_Int (readHeap var18 (nthAddrRange var15 var10)))) (is-O_Int (readHeap var18 (nthAddrRange var15 var10)))) (= var9 200))) (inv_main41 var8 var7 var6 var5 var0 var4 var3 var2 var1))))
(assert (forall ((var0 Int) (var1 Int) (var2 Int) (var3 Int) (var4 AddrRange) (var5 AddrRange) (var6 Int) (var7 Heap) (var8 Int) (var9 Int) (var10 Int) (var11 Int) (var12 Int) (var13 Int) (var14 AddrRange) (var15 AddrRange) (var16 Int) (var17 Heap)) (or (not (and (and (and (and (and (and (and (and (and (and (and (and (inv_main39 var17 var16 var15 var14 var13 var12 var11 var10 var9) (= var0 var9)) (= var1 var10)) (= var2 var11)) (= var3 var12)) (= var8 var13)) (= var4 var14)) (= var5 var15)) (= var6 var16)) (= var7 (writeHeap var17 (nthAddrRange var14 var9) (O_Int (* var12 var13))))) (is-O_Int (readHeap var17 (nthAddrRange var14 var9)))) (is-O_Int (readHeap var17 (nthAddrRange var14 var9)))) (not (= var8 200)))) (inv_main41 var7 var6 var5 var4 var8 var3 var2 var1 var0))))
(assert (forall ((var0 Int) (var1 Int) (var2 Int) (var3 Int) (var4 Int) (var5 AddrRange) (var6 AddrRange) (var7 Int) (var8 Heap) (var9 Int) (var10 Int) (var11 Int) (var12 Int) (var13 Int) (var14 Int) (var15 AddrRange) (var16 AddrRange) (var17 Int) (var18 Heap)) (or (not (and (and (and (and (and (and (and (and (and (and (and (and (and (inv_main40 var18 var17 var16 var15 var14 var13 var12 var11 var10) (= var0 0)) (= var1 var10)) (= var2 var11)) (= var3 var12)) (= var4 var13)) (= var9 var14)) (= var5 var15)) (= var6 var16)) (= var7 var17)) (= var8 (writeHeap var18 (nthAddrRange var15 var10) (O_Int (* (* var13 var14) var13))))) (is-O_Int (readHeap var18 (nthAddrRange var15 var10)))) (is-O_Int (readHeap var18 (nthAddrRange var15 var10)))) (= var9 200))) (inv_main41 var8 var7 var6 var5 var0 var4 var3 var2 var1))))
(assert (forall ((var0 Int) (var1 Int) (var2 Int) (var3 Int) (var4 AddrRange) (var5 AddrRange) (var6 Int) (var7 Heap) (var8 Int) (var9 Int) (var10 Int) (var11 Int) (var12 Int) (var13 Int) (var14 AddrRange) (var15 AddrRange) (var16 Int) (var17 Heap)) (or (not (and (and (and (and (and (and (and (and (and (and (and (and (inv_main40 var17 var16 var15 var14 var13 var12 var11 var10 var9) (= var0 var9)) (= var1 var10)) (= var2 var11)) (= var3 var12)) (= var8 var13)) (= var4 var14)) (= var5 var15)) (= var6 var16)) (= var7 (writeHeap var17 (nthAddrRange var14 var9) (O_Int (* (* var12 var13) var12))))) (is-O_Int (readHeap var17 (nthAddrRange var14 var9)))) (is-O_Int (readHeap var17 (nthAddrRange var14 var9)))) (not (= var8 200)))) (inv_main41 var7 var6 var5 var4 var8 var3 var2 var1 var0))))
(assert (forall ((var0 Int) (var1 Int) (var2 Int) (var3 Int) (var4 Int) (var5 Int) (var6 Int) (var7 AddrRange) (var8 AddrRange) (var9 Int) (var10 Heap)) (or (not (and (and (and (inv_main41 var10 var9 var8 var7 var6 var5 var4 var3 var2) (= var0 0)) (= var1 0)) (<= 0 (+ var9 (* (- 1) 1))))) (inv_main51 var10 var9 var8 var7 var0 var5 var4 var1 var2))))
(assert (forall ((var0 Int) (var1 Int) (var2 Int) (var3 Int) (var4 Int) (var5 Int) (var6 AddrRange) (var7 AddrRange) (var8 Heap) (var9 Int) (var10 Int) (var11 Int) (var12 Int) (var13 Int) (var14 Int) (var15 Int) (var16 Int) (var17 AddrRange) (var18 AddrRange) (var19 Int) (var20 Heap)) (or (not (and (and (and (and (and (and (and (and (and (and (and (and (and (inv_main53 var20 var19 var18 var17 var16 var15 var14 var13 var12 var11) (= var0 (+ var9 1))) (= var1 (+ var11 (getInt (readHeap var20 (nthAddrRange var17 var16)))))) (= var2 var12)) (= var3 var13)) (= var4 var14)) (= var5 var15)) (= var9 var16)) (= var6 var17)) (= var7 var18)) (= var10 var19)) (= var8 var20)) (is-O_Int (readHeap var20 (nthAddrRange var17 var16)))) (<= 0 (+ (+ (* (- 1) (+ var9 1)) var10) (* (- 1) 1))))) (inv_main51 var8 var10 var7 var6 var0 var5 var1 var3 var2))))
(assert (forall ((var0 Int) (var1 Int) (var2 Int) (var3 Int) (var4 Int) (var5 Int) (var6 Int) (var7 AddrRange) (var8 AddrRange) (var9 Int) (var10 Heap)) (or (not (and (and (and (inv_main41 var10 var9 var8 var7 var6 var5 var4 var3 var2) (= var0 0)) (= var1 0)) (not (<= 0 (+ var9 (* (- 1) 1)))))) (inv_main49 var10 var9 var8 var7 var0 var5 var4 var1 var2))))
(assert (forall ((var0 Int) (var1 Int) (var2 Int) (var3 Int) (var4 Int) (var5 Int) (var6 AddrRange) (var7 AddrRange) (var8 Heap) (var9 Int) (var10 Int) (var11 Int) (var12 Int) (var13 Int) (var14 Int) (var15 Int) (var16 Int) (var17 AddrRange) (var18 AddrRange) (var19 Int) (var20 Heap)) (or (not (and (and (and (and (and (and (and (and (and (and (and (and (and (inv_main53 var20 var19 var18 var17 var16 var15 var14 var13 var12 var11) (= var0 (+ var9 1))) (= var1 (+ var11 (getInt (readHeap var20 (nthAddrRange var17 var16)))))) (= var2 var12)) (= var3 var13)) (= var4 var14)) (= var5 var15)) (= var9 var16)) (= var6 var17)) (= var7 var18)) (= var10 var19)) (= var8 var20)) (is-O_Int (readHeap var20 (nthAddrRange var17 var16)))) (not (<= 0 (+ (+ (* (- 1) (+ var9 1)) var10) (* (- 1) 1)))))) (inv_main49 var8 var10 var7 var6 var0 var5 var1 var3 var2))))
(assert (forall ((var0 Int) (var1 Int) (var2 Int) (var3 Int) (var4 Int) (var5 AddrRange) (var6 AddrRange) (var7 Int) (var8 Heap)) (not (and (inv_main20 var8 var7 var6 var5 var4 var3 var2 var1 var0) (not (is-O_Int (readHeap var8 (nthAddrRange var6 var4))))))))
(assert (forall ((var0 Int) (var1 Int) (var2 Int) (var3 Int) (var4 Int) (var5 AddrRange) (var6 AddrRange) (var7 Int) (var8 Heap)) (not (and (and (inv_main20 var8 var7 var6 var5 var4 var3 var2 var1 var0) (not (withinHeap var6 (nthAddrRange var6 var4)))) (is-O_Int (readHeap var8 (nthAddrRange var6 var4)))))))
(assert (forall ((var0 Int) (var1 Int) (var2 Int) (var3 Int) (var4 Int) (var5 AddrRange) (var6 AddrRange) (var7 Int) (var8 Heap)) (not (and (and (inv_main20 var8 var7 var6 var5 var4 var3 var2 var1 var0) (not (is-O_Int (readHeap var8 (nthAddrRange var6 var4))))) (is-O_Int (readHeap var8 (nthAddrRange var6 var4)))))))
(assert (forall ((var0 Int) (var1 Int) (var2 Int) (var3 Int) (var4 Int) (var5 AddrRange) (var6 AddrRange) (var7 Int) (var8 Heap)) (not (and (inv_main22 var8 var7 var6 var5 var4 var3 var2 var1 var0) (not (is-O_Int (readHeap var8 (nthAddrRange var5 var4))))))))
(assert (forall ((var0 Int) (var1 Int) (var2 Int) (var3 Int) (var4 Int) (var5 AddrRange) (var6 AddrRange) (var7 Int) (var8 Heap)) (not (and (and (inv_main22 var8 var7 var6 var5 var4 var3 var2 var1 var0) (not (withinHeap var5 (nthAddrRange var5 var4)))) (is-O_Int (readHeap var8 (nthAddrRange var5 var4)))))))
(assert (forall ((var0 Int) (var1 Int) (var2 Int) (var3 Int) (var4 Int) (var5 AddrRange) (var6 AddrRange) (var7 Int) (var8 Heap)) (not (and (and (inv_main22 var8 var7 var6 var5 var4 var3 var2 var1 var0) (not (is-O_Int (readHeap var8 (nthAddrRange var5 var4))))) (is-O_Int (readHeap var8 (nthAddrRange var5 var4)))))))
(assert (forall ((var0 Int) (var1 Int) (var2 Int) (var3 Int) (var4 Int) (var5 AddrRange) (var6 AddrRange) (var7 Int) (var8 Heap)) (not (and (inv_main37 var8 var7 var6 var5 var4 var3 var2 var1 var0) (not (is-O_Int (readHeap var8 (nthAddrRange var6 var0))))))))
(assert (forall ((var0 Int) (var1 Int) (var2 Int) (var3 Int) (var4 Int) (var5 AddrRange) (var6 AddrRange) (var7 Int) (var8 Heap)) (not (and (and (inv_main37 var8 var7 var6 var5 var4 var3 var2 var1 var0) (not (withinHeap var6 (nthAddrRange var6 var0)))) (is-O_Int (readHeap var8 (nthAddrRange var6 var0)))))))
(assert (forall ((var0 Int) (var1 Int) (var2 Int) (var3 Int) (var4 Int) (var5 AddrRange) (var6 AddrRange) (var7 Int) (var8 Heap)) (not (and (and (inv_main37 var8 var7 var6 var5 var4 var3 var2 var1 var0) (not (is-O_Int (readHeap var8 (nthAddrRange var6 var0))))) (is-O_Int (readHeap var8 (nthAddrRange var6 var0)))))))
(assert (forall ((var0 Int) (var1 Int) (var2 Int) (var3 Int) (var4 Int) (var5 AddrRange) (var6 AddrRange) (var7 Int) (var8 Heap)) (not (and (inv_main39 var8 var7 var6 var5 var4 var3 var2 var1 var0) (not (is-O_Int (readHeap var8 (nthAddrRange var5 var0))))))))
(assert (forall ((var0 Int) (var1 Int) (var2 Int) (var3 Int) (var4 Int) (var5 AddrRange) (var6 AddrRange) (var7 Int) (var8 Heap)) (not (and (and (inv_main39 var8 var7 var6 var5 var4 var3 var2 var1 var0) (not (withinHeap var5 (nthAddrRange var5 var0)))) (is-O_Int (readHeap var8 (nthAddrRange var5 var0)))))))
(assert (forall ((var0 Int) (var1 Int) (var2 Int) (var3 Int) (var4 Int) (var5 AddrRange) (var6 AddrRange) (var7 Int) (var8 Heap)) (not (and (and (inv_main39 var8 var7 var6 var5 var4 var3 var2 var1 var0) (not (is-O_Int (readHeap var8 (nthAddrRange var5 var0))))) (is-O_Int (readHeap var8 (nthAddrRange var5 var0)))))))
(assert (forall ((var0 Int) (var1 Int) (var2 Int) (var3 Int) (var4 Int) (var5 AddrRange) (var6 AddrRange) (var7 Int) (var8 Heap)) (not (and (inv_main38 var8 var7 var6 var5 var4 var3 var2 var1 var0) (not (is-O_Int (readHeap var8 (nthAddrRange var6 var0))))))))
(assert (forall ((var0 Int) (var1 Int) (var2 Int) (var3 Int) (var4 Int) (var5 AddrRange) (var6 AddrRange) (var7 Int) (var8 Heap)) (not (and (and (inv_main38 var8 var7 var6 var5 var4 var3 var2 var1 var0) (not (withinHeap var6 (nthAddrRange var6 var0)))) (is-O_Int (readHeap var8 (nthAddrRange var6 var0)))))))
(assert (forall ((var0 Int) (var1 Int) (var2 Int) (var3 Int) (var4 Int) (var5 AddrRange) (var6 AddrRange) (var7 Int) (var8 Heap)) (not (and (and (inv_main38 var8 var7 var6 var5 var4 var3 var2 var1 var0) (not (is-O_Int (readHeap var8 (nthAddrRange var6 var0))))) (is-O_Int (readHeap var8 (nthAddrRange var6 var0)))))))
(assert (forall ((var0 Int) (var1 Int) (var2 Int) (var3 Int) (var4 Int) (var5 AddrRange) (var6 AddrRange) (var7 Int) (var8 Heap)) (not (and (inv_main40 var8 var7 var6 var5 var4 var3 var2 var1 var0) (not (is-O_Int (readHeap var8 (nthAddrRange var5 var0))))))))
(assert (forall ((var0 Int) (var1 Int) (var2 Int) (var3 Int) (var4 Int) (var5 AddrRange) (var6 AddrRange) (var7 Int) (var8 Heap)) (not (and (and (inv_main40 var8 var7 var6 var5 var4 var3 var2 var1 var0) (not (withinHeap var5 (nthAddrRange var5 var0)))) (is-O_Int (readHeap var8 (nthAddrRange var5 var0)))))))
(assert (forall ((var0 Int) (var1 Int) (var2 Int) (var3 Int) (var4 Int) (var5 AddrRange) (var6 AddrRange) (var7 Int) (var8 Heap)) (not (and (and (inv_main40 var8 var7 var6 var5 var4 var3 var2 var1 var0) (not (is-O_Int (readHeap var8 (nthAddrRange var5 var0))))) (is-O_Int (readHeap var8 (nthAddrRange var5 var0)))))))
(assert (forall ((var0 Int) (var1 Int) (var2 Int) (var3 Int) (var4 Int) (var5 AddrRange) (var6 AddrRange) (var7 Int) (var8 Heap)) (not (and (inv_main51 var8 var7 var6 var5 var4 var3 var2 var1 var0) (not (is-O_Int (readHeap var8 (nthAddrRange var6 var4))))))))
(assert (forall ((var0 Int) (var1 Int) (var2 Int) (var3 Int) (var4 Int) (var5 AddrRange) (var6 AddrRange) (var7 Int) (var8 Heap)) (not (and (and (inv_main51 var8 var7 var6 var5 var4 var3 var2 var1 var0) (not (withinHeap var6 (nthAddrRange var6 var4)))) (is-O_Int (readHeap var8 (nthAddrRange var6 var4)))))))
(assert (forall ((var0 Int) (var1 Int) (var2 Int) (var3 Int) (var4 Int) (var5 Int) (var6 AddrRange) (var7 AddrRange) (var8 Int) (var9 Heap)) (not (and (inv_main53 var9 var8 var7 var6 var5 var4 var3 var2 var1 var0) (not (is-O_Int (readHeap var9 (nthAddrRange var6 var5))))))))
(assert (forall ((var0 Int) (var1 Int) (var2 Int) (var3 Int) (var4 Int) (var5 Int) (var6 AddrRange) (var7 AddrRange) (var8 Int) (var9 Heap)) (not (and (and (inv_main53 var9 var8 var7 var6 var5 var4 var3 var2 var1 var0) (not (withinHeap var6 (nthAddrRange var6 var5)))) (is-O_Int (readHeap var9 (nthAddrRange var6 var5)))))))
(assert (forall ((var0 Int) (var1 Int) (var2 Int) (var3 Int) (var4 Int) (var5 AddrRange) (var6 AddrRange) (var7 Int) (var8 Heap)) (not (and (inv_main49 var8 var7 var6 var5 var4 var3 var2 var1 var0) (not (= var2 0))))))
(check-sat)
